0 0 0 0
0 1 2 0
0 2 0 0
0 3 1 0
0 4 0 4
0 5 0 3
0 6 0 7
0 7 0 5
0 8 0 7
0 9 0 9
0 10 0 10
0 11 1 4
0 12 0 14
0 13 0 14
0 14 0 20
0 15 0 9
0 16 0 20
0 17 1 16
0 18 0 13
0 19 0 10
0 20 1 15
0 21 0 15
0 22 0 15
0 23 0 20
0 24 0 22
0 25 1 17
0 26 0 21
0 27 0 24
0 28 2 21
0 29 0 25
0 30 0 24
0 31 0 26
